New structure                           
1.0
       10.0000000000         0.0000000000         0.0000000000
        0.0000000000        10.0000000000         0.0000000000
        0.0000000000         0.0000000000        10.0000000000
    S
    8
Direct
     0.070014167         0.864403915         0.123574996
     0.971303844         0.855496025         0.305403996
     0.068034160         0.977644062         0.441468000
     0.970577621         0.159890997         0.451504993
     0.066170329         0.296824980         0.329039001
     0.969892120         0.304746008         0.146211004
     0.069551158         0.183434987         0.011239000
     0.974456596         0.000000000         0.000000000
