 C  H  O 
1.0
       10.0000000000         0.0000000000         0.0000000000
        0.0000000000        10.0000000000         0.0000000000
        0.0000000000         0.0000000000        10.0000000000
    C    H    O
    1    1    1
Direct
     0.085000002         0.000000000         0.100000000
    -0.000000000        -0.000000000         0.170000005
     0.000000000         0.000000000         0.000000000
