 H 
 1.0000000000000000
    10.0000000000000000    0.0000000000000000    0.0000000000000000
     0.0000000000000000   10.0000000000000000    0.0000000000000000
     0.0000000000000000    0.0000000000000000   10.0000000000000000
 H 
   2
Cartesian
  0.0000000000000000  0.0000000000000000  0.0000000000000000
  0.7700000000000001  0.0000000000000000  0.0000000000000000
