C 
1.0
       10.0000000000         0.0000000000         0.0000000000
        0.0000000000        10.0000000000         0.0000000000
        0.0000000000         0.0000000000        10.0000000000
    C    H
    1    2
Direct
     0.000000000         0.000000000         0.000000000
     0.000000000         0.090000004         0.070000000
     0.000000000         0.910000004         0.070000000
