 C  N Co 
 1.0000000000000000
    12.4829469611913577    0.0065617974109916    0.0000000000000000
    -6.2353347603645330   10.5784418846125661    0.0000000000000000
     0.0000000000000000    0.0000000000000000   22.8902010765409436
 C   N   Co 
  47   1   1
Selective dynamics
Cartesian
 -0.0049431207355833  0.0115731461288636  0.0131721974999016   T   T   T
 11.2042473431845657  2.0981293686429128  0.0167343963385030   T   T   T
  9.9633288111635316  4.2334692362674033  0.0194457923969053   T   T   T
 -3.7357253936217520  6.3656508951043236  0.0186377713007664   T   T   T
 -4.9762313941094014  8.5008958738314142  0.0149008688108448   T   T   T
  2.4878875265537048  0.0796136704929695  0.0139897388558824   T   T   T
  1.2039671062698309  2.2024127367953237  0.0202181336685118   T   T   T
 -0.0870805664430050  4.2018267768042010  0.0238100293671088   T   T   T
 -1.2958649346861943  6.3554835767606939  0.0195079294233175   T   T   T
 -2.5028167234445537  8.5015548514050927  0.0153380490291656   T   T   T
  4.9932505697362908  0.0192550399186966  0.0138350766808354   T   T   T
  3.7686317450829532  2.1963153418330932  0.0186491561181248   T   T   T
 -0.0080632140640928  8.4447898804499406  0.0163894923277272   T   T   T
  1.2576906097676477 10.5399821158750235  0.0149657443412652   T   T   T
  6.2690005465982397  2.1008561561278571  0.0165984785937620   T   T   T
  5.1093223379582158  4.2257102497715548  0.0224495271761940   T   T   T
  2.4988577699463606  8.3915030003364244  0.0190198816560245   T   T   T
  3.7441385035593453 10.5391129900787721  0.0146827850026583   T   T   T
  8.7389504415363746  2.0900221507126360  0.0173224080175990   T   T   T
  7.5332816700672094  4.2322280787464486  0.0194217680423868   T   T   T
  6.3101337179528745  6.3709556882934315  0.0187457773601612   T   T   T
  5.0064293169226577  8.4415138684891922  0.0158912013273935   T   T   T
 -0.0182978641070309  1.4332568298782844  0.0154525455680253   T   T   T
 -1.3024614589211312  3.5028277623951509  0.0190928132014324   T   T   T
 -2.5197941901780485  5.6466820820679935  0.0195461668119243   T   T   T
 -3.7387156600916605  7.7905430127295370  0.0164341769246159   T   T   T
 -4.9832118714151648  9.9200951878530876  0.0134000806844045   T   T   T
  2.4901641203275959  1.5092633432046778  0.0175251434342380   T   T   T
 -0.0800467081273492  5.6419828903572311  0.0236241670283964   T   T   T
 -1.2678256742615015  7.7750620227072931  0.0169885872541995   T   T   T
 -2.5010876382699077  9.9243444950703257  0.0137699545209566   T   T   T
  5.0029020018809653  1.4392913634871118  0.0152484778087095   T   T   T
  1.2268954174544315  7.6952237722611727  0.0206248229415046   T   T   T
 -0.0013204607951101  9.8653919478071561  0.0144251394295288   T   T   T
  7.5004910354393228  1.3802412178618804  0.0160347267446684   T   T   T
  6.3139973528442717  3.5144699067152745  0.0189262513024283   T   T   T
  5.1036440165277082  5.6548757394336704  0.0230190995157675   T   T   T
  3.7674608091425923  7.6859289413894958  0.0206208835686334   T   T   T
  2.5006742275837399  9.8130166494993780  0.0155355604790868   T   T   T
  9.9715994998310737  1.3769795257464490  0.0159474202909610   T   T   T
  8.7479236224267218  3.5147790794707241  0.0190088036453055   T   T   T
  7.5313544611063321  5.6542455890336880  0.0191392672671823   T   T   T
  6.2732994079106055  7.7846205518157392  0.0162897484880602   T   T   T
  5.0012715572320570  9.8632877203641272  0.0137595102679095   T   T   T
  1.1700370047982238  6.2824383524365848  0.0281351394685057   T   T   T
  3.8470876022613179  3.6079279714142150  0.0261549399032504   T   T   T
  3.8342431450062873  6.2693109022646469  0.0278283787913784   T   T   T
  1.1220048908576423  3.5728979076191076  0.0285788694971715   T   T   T
  2.5010299353763674  4.9417836491258162  0.0413287353649655   T   T   T
