Ag 
 1.0000000000000000
     8.1534037072044949    0.0000000041157022   -0.0000000117172005
     0.0000000041157022    8.1534037072044949   -0.0000000098840249
    -0.0000000117172005   -0.0000000098840249    8.1534037072044949
 Ag 
  32
Selective dynamics
Cartesian
  0.0000059898461106 -0.0000189023477231  0.0000182351576553   T   T   T
  0.0000068006526974  2.0383611487850359  2.0383606589415613   T   T   T
  2.0383440027358293 -0.0000208691587944  2.0383603225152678   T   T   T
  2.0383450185135552  2.0383597919797745  0.0000176735318581   T   T   T
  4.0766987602815670 -0.0000179403348991  0.0000172085435182   T   T   T
  4.0766980306587275  2.0383606015476952  2.0383601171571950   T   T   T
  0.0000064786475721  4.0767259610365079  0.0000198349358373   T   T   T
  2.0383441971782772  4.0767260392857416  2.0383602979382260   T   T   T
  4.0766983263123882  4.0767247212637470  0.0000186610096986   T   T   T
  0.0000064297888635 -0.0000204159716974  4.0766850174696305   T   T   T
  2.0383444241138395  2.0383602778281138  4.0766857909637766   T   T   T
  4.0766984115440845 -0.0000190845224384  4.0766863785140091   T   T   T
  0.0000065043947220  4.0767262060944152  4.0766848384388457   T   T   T
  4.0766978887265424  4.0767261441423823  4.0766848497188120   T   T   T
  6.1150644798703562 -0.0000207880992086  2.0383602360515809   T   T   T
  6.1150635322942168  2.0383596778834372  0.0000176325292662   T   T   T
  0.0000062442368445  6.1150493457259776  2.0383601365192057   T   T   T
  2.0383440270221356  6.1150490019833175  0.0000199945694243   T   T   T
  4.0766978270314498  6.1150488047922567  2.0383605445637629   T   T   T
  6.1150645517499758  4.0767265463415363  2.0383604632213630   T   T   T
  6.1150644870370119  6.1150491628239676  0.0000200892414361   T   T   T
  0.0000060756245744  2.0383599235354684  6.1150512439001821   T   T   T
  2.0383450199420197 -0.0000184094765280  6.1150512549025278   T   T   T
  4.0766984980574623  2.0383596466551848  6.1150514474342144   T   T   T
  2.0383443635083993  4.0767254333776926  6.1150508348346149   T   T   T
  6.1150635089351892 -0.0000182641901216  6.1150513698044469   T   T   T
  6.1150637641779042  2.0383598745190499  4.0766868964602008   T   T   T
  0.0000068770774227  6.1150487624710594  6.1150500641690106   T   T   T
  2.0383441734458581  6.1150491361997465  4.0766849219784715   T   T   T
  4.0766979003269377  6.1150492576118989  6.1150504824956222   T   T   T
  6.1150638028816049  4.0767241992950476  6.1150512350906912   T   T   T
  6.1150645585555576  6.1150490398867703  4.0766844279895391   T   T   T
