H1 Pt16
1.0
   5.5576356129149724    0.0000000000000000    0.0000000000000004
   0.0000000000000008    5.5576356129149724    0.0000000000000004
   0.0000000000000000    0.0000000000000000   19.6492091462801568
Pt H
16 1
Selective dynamics
direct
   0.4999996354534911    0.5000006907165235    0.6462245826813082 T T T Pt
   0.5000000086650424    0.0000004560901775    0.6462245541259293 T T T Pt
   0.9999996230439172    0.5000006308800421    0.6462245882476234 T T T Pt
   1.0000002061656275    0.0000007373757916    0.6462245485787835 T T T Pt
   0.2499999297820020    0.2500006027069370    0.5475053845064568 T T T Pt
   0.2499999690688061    0.7500004934611824    0.5475054012096150 T T T Pt
   0.7500000994420982    0.2500001734035324    0.5475053458597605 T T T Pt
   0.7499997226948588    0.7500008097403559    0.5475053873841498 T T T Pt
   0.4999995435460142    0.5000003621393456    0.4485107469312891 F F F Pt
   0.5000001492349193    0.0000003194855991    0.4485108151046631 F F F Pt
   0.9999996454213795    0.5000001426624717    0.4485107146795172 F F F Pt
   0.9999995296330740    0.0000004986477892    0.4485108010060586 F F F Pt
   0.2499998455357759    0.2500000000000000    0.3499999691071551 F F F Pt
   0.2499998455357759    0.7499999999999999    0.3499999691071551 F F F Pt
   0.7499998455357760    0.2500000000000000    0.3499999691071551 F F F Pt
   0.7499998455357760    0.7499999999999999    0.3499999691071550 F F F Pt
   0.4999996354534911    0.5000006907165235    0.7480098497172909 T T T H
