 N  H 
 1.0000000000000000
    10.0000000000000000    0.0000000000000000    0.0000000000000000
     0.0000000000000000   10.0000000000000000    0.0000000000000000
     0.0000000000000000    0.0000000000000000   10.0000000000000000
 N  H 
   1   2
Cartesian
  0.0000000000000000  0.0000000000000000  0.0000000000000000
  0.8171613560000001  0.4509942350000001  0.4512466190000000
  9.1977174230000003  0.4638506620000000  0.4641102410000000
