New structure                           
1.0
       10.0000000000         0.0000000000         0.0000000000
        0.0000000000        10.0000000000         0.0000000000
        0.0000000000         0.0000000000        10.0000000000
    S
    2
Direct
     0.000000000         0.000000000         0.000000000
     0.000000000         0.000000000         0.190539002
