 C  O 
1.0
       10.0000000000         0.0000000000         0.0000000000
        0.0000000000        10.0000000000         0.0000000000
        0.0000000000         0.0000000000        10.0000000000
    C    O    H
    1    1    3
Direct
    -0.000000000        -0.000000000         0.133126009
     0.000000000         0.000000000         0.000000000
     0.959999943         0.930000019         0.206200004
     0.959999943         0.069999999         0.206200004
     0.090000004        -0.000000000         0.206200004
