 N 
1.0
       10.0000000000         0.0000000000         0.0000000000
        0.0000000000        10.0000000000         0.0000000000
        0.0000000000         0.0000000000        10.0000000000
    N    H
    2    1
Cartesian
     0.000000000         0.000000000         0.000000000
     1.250000000         0.000000000         0.000000000
     2.000000000         0.000000000         0.799999952
