 C  H  O 
1.0
       10.0000000000         0.0000000000         0.0000000000
        0.0000000000        10.0000000000         0.0000000000
        0.0000000000         0.0000000000        10.0000000000
    C    H    O
    1    1    1
Direct
     0.000000000         0.000000000         0.004850000
    -0.000000000        -0.000000000         0.111849999
     0.121039999         0.048519999         0.000000000
