 C  H  O 
 1.0000000000000000
    10.0000000000000000    0.0000000000000000    0.0000000000000000
     0.0000000000000000   10.0000000000000000    0.0000000000000000
     0.0000000000000000    0.0000000000000000   10.0000000000000000
 C  H  O 
   1   1   1
Cartesian
 -1.2103999999999999 -0.4852000000000000  0.0485000000000000
 -1.2103999999999999 -0.4852000000000000  1.1185000000000000
  0.0000000000000000  0.0000000000000000  0.0000000000000000
