 N 
1.0
       10.0000000000         0.0000000000         0.0000000000
        0.0000000000        10.0000000000         0.0000000000
        0.0000000000         0.0000000000        10.0000000000
    N    H
    2    2
Direct
     0.000000000         0.000000000         0.000000000
     0.900000000         0.000000000         0.110000002
     0.900000000         0.000000000         0.220000005
     0.079999995         0.000000000         0.079999995
