New structure                           
1.0
        9.8577299118         0.0000000000         0.0000000000
        0.0000000000         9.7797670364         0.0000000000
        0.0000000000        -1.0611023247        10.3727654853
    S
    4
Direct
     0.000000000         0.004933487         0.000000000
    -0.000000000         0.968604921         0.176834999
    -0.000000000         0.163732977         0.291579988
    -0.000000000         0.302728586         0.175028994
