 O  H 
1.0
       10.0000000000         0.0000000000         0.0000000000
        0.0000000000        10.0000000000         0.0000000000
        0.0000000000         0.0000000000        10.0000000000
    O    H
    2    2
Direct
     0.000000000         0.000000000         0.000000000
     0.000000000         0.079999998         0.119999997
     0.005000000         0.189999998         0.100000001
     0.005000000         0.899999976         0.050000001
