C 
1.0
       10.0000000000         0.0000000000         0.0000000000
        0.0000000000        10.0000000000         0.0000000000
        0.0000000000         0.0000000000        10.0000000000
    C    H
    1    3
Direct
     0.000000000         0.000000000         0.000000000
     0.000000000         0.090000004         0.070000000
     0.080000000         0.950000004         0.070000000
     0.920000000         0.950000004         0.070000000
