 N 
 1.0000000000000000
    10.0000000000000000    0.0000000000000000    0.0000000000000000
     0.0000000000000000   10.0000000000000000    0.0000000000000000
     0.0000000000000000    0.0000000000000000   10.0000000000000000
 N 
   1
Cartesian
  0.0000000000000000  0.0000000000000000  0.0000000000000000
