 O  H 
1.0
       10.0000000000         0.0000000000         0.0000000000
        0.0000000000        10.0000000000         0.0000000000
        0.0000000000         0.0000000000        10.0000000000
    O    H
    2    1
Cartesian
     0.000000000         0.000000000         0.000000000
     0.000000000         0.400000000         1.400000019
     0.050000000         1.500000000         1.400000057
