 O  H 
1.0
       10.0000000000         0.0000000000         0.0000000000
        0.0000000000        10.0000000000         0.0000000000
        0.0000000000         0.0000000000        10.0000000000
    O    H
    2    1
Cartesian
     0.000000000         0.000000000         0.000000000
     0.000000000         0.000000000         1.480000019
     0.000000000         0.000000000         2.440000057
