O atom                             
   1.00000000000000     
    10.0000000000000000    0.0000000000000000    0.0000000000000000
     0.0000000000000000   10.0000000000000000    0.0000000000000000
     0.0000000000000000    0.0000000000000000   10.0000000000000000
   O    
     1     
Cartesian
  0.0000000000000000  0.0000000000000000  0.0000000000000000


