 N  H 
 1.0000000000000000
     9.1734762588443619   -0.0474538914929493    0.0634051746785588
    -0.0481858916991071    9.1786482233823907   -0.0741429417913861
     0.0662361637258660   -0.0749861065358383    8.6788604289562361
 N  H 
   1   3
Cartesian
  0.0000000000000000  0.0000000000000000  0.0000000000000000
  0.8787956510000000  0.2805428870000001  0.4384633990000000
  8.4800911268443624  0.6418963745070508  0.3613109916785589
  8.8562606981452561  8.2529754028894420  0.4376818928871727
