 C  O  H 
 1.0000000000000000
    10.0000000000000000    0.0000000000000000    0.0000000000000000
     0.0000000000000000   10.0000000000000000    0.0000000000000000
     0.0000000000000000    0.0000000000000000   10.0000000000000000
 C   O   H  
   1   1   4
Direct
  0.0003235830717152  0.9217215549851714  0.1337350312210501
  0.9862099156271702  0.9889660092335770  0.0074049392407755
  0.9537460055937841  0.8226550079183506  0.1233631000130016
  0.9490839885546505  0.9764063028688821  0.2147115144173239
  0.1063739352640877  0.9079812207947416  0.1615355539942576
  0.0138921187430553  0.0822288297369815  0.0200886937328472
