 C  O 
 1.0000000000000000
    10.0000000000000000    0.0000000000000000    0.0000000000000000
     0.0000000000000000   10.0000000000000000    0.0000000000000000
     0.0000000000000000    0.0000000000000000   10.0000000000000000
 C  O 
   1   2
Cartesian
  0.0000000000000000  0.0000000000000000  1.1312600000000002
  0.0000000000000000  0.0000000000000000  2.2620000000000009
  0.0000000000000000  0.0000000000000000  0.0000000000000000
