 C  H  O 
1.0
       10.0000000000         0.0000000000         0.0000000000
        0.0000000000        10.0000000000         0.0000000000
        0.0000000000         0.0000000000        10.0000000000
    C    H    O
    1    1    1
Cartesian
     8.789600372         9.514800072         0.048500001
     0.000000000         0.000000000         1.118499994
     0.000000000         0.000000000         0.000000000
