New structure                           
1.0
       10.0000000000         0.0000000000         0.0000000000
        0.0000000000        10.0000000000         0.0000000000
        0.0000000000         0.0000000000        10.0000000000
    S
    6
Direct
     0.913285065         0.824703979         0.070277995
     0.001980000         0.799036026         0.256564999
     0.912182999         0.946436024         0.372289991
     0.999257946         0.121733999         0.302214003
     0.910702991         0.147553992         0.116075003
     0.000000000         0.000000000         0.000000000
