 N 
1.0
       10.0000000000         0.0000000000         0.0000000000
        0.0000000000        10.0000000000         0.0000000000
        0.0000000000         0.0000000000        10.0000000000
    N    H
    2    3
Direct
     0.000000000         0.000000000         0.000000000
     0.000000000         0.000000000         0.125000000
     0.069999999         0.000000000         0.209999990
     0.950000000         0.050000000         0.209999990
     0.950000000         0.950000000         0.209999990
