H2O molecule                             
1.0
       10.0000000000         0.0000000000         0.0000000000
        0.0000000000        10.0000000000         0.0000000000
        0.0000000000         0.0000000000        10.0000000000
    O    H
    1    3
Direct
     0.000000000         0.000000000         0.100000000
     0.000000000         0.076323903         0.159631002
    -0.000000000         0.923676109         0.159631002
     0.000000000         0.000000000         0.000000000
