 O  H 
 1.0000000000000000
    10.0000000000000000    0.0000000000000000    0.0000000000000000
     0.0000000000000000   10.0000000000000000    0.0000000000000000
     0.0000000000000000    0.0000000000000000   10.0000000000000000
 O  H 
   1   3
Direct
  0.0009252121589148  0.9999977750541243  0.1117561065304597
  0.0462832455473798  0.0816338361997165  0.1477387197964154
  0.0462854044594466  0.9183625630209086  0.1477373631286014
  0.0066786012038776  0.9999988183855436  0.0119782499317860
