 C  O 
1.0
       10.0000000000         0.0000000000         0.0000000000
        0.0000000000        10.0000000000         0.0000000000
        0.0000000000         0.0000000000        10.0000000000
    C    O
    1    2
Direct
     0.000000000         0.000000000         0.113126004
    -0.000000000        -0.000000000         0.226200008
     0.000000000         0.000000000         0.000000000
