 C  O 
1.0
       10.0000000000         0.0000000000         0.0000000000
        0.0000000000        10.0000000000         0.0000000000
        0.0000000000         0.0000000000        10.0000000000
    C    O    H
    1    2    2
Direct
    -0.000000000        -0.000000000         0.133126009
     0.000000000         0.900000000         0.226200008
     0.000000000         0.000000000         0.000000000
    -0.000000000         0.090000004         0.206200004
    -0.000000000         0.900000000         0.336199999
