 O  C 
1.0
       10.0000000000         0.0000000000         0.0000000000
        0.0000000000        10.0000000000         0.0000000000
        0.0000000000         0.0000000000        10.0000000000
    C    O
    1    1
Direct
     0.986929989         0.986840057         0.124469995
     0.000000000         0.000000000         0.000000000
