COOH
1.0
       10.0000000000         0.0000000000         0.0000000000
        0.0000000000        10.0000000000         0.0000000000
        0.0000000000         0.0000000000        10.0000000000
    C    O    H
    1    2    1
Direct
     0.000000000         0.000000000         0.000000000
    -0.000000000         0.116199994         0.069999999
    -0.000000000         0.883800030         0.069999999
     0.000000000         0.116199994         0.179999999